14° run output:
{
    "Function": "kroA400.tsp",
    "Problem dimension": [
        353,
        340,
        190,
        383,
        72,
        0,
        256,
        249,
        82,
        290,
        218,
        197,
        15,
        48,
        252,
        151,
        316,
        219,
        331,
        142,
        89,
        277,
        186,
        13,
        350,
        380,
        399,
        263,
        260,
        135,
        217,
        22,
        371,
        44,
        373,
        18,
        348,
        100,
        5,
        215,
        231,
        111,
        365,
        318,
        396,
        347,
        341,
        3,
        91,
        223,
        395,
        137,
        198,
        80,
        156,
        170,
        199,
        374,
        262,
        397,
        1,
        241,
        282,
        12,
        352,
        358,
        234,
        286,
        242,
        285,
        221,
        25,
        325,
        315,
        394,
        4,
        2,
        247,
        24,
        206,
        295,
        122,
        362,
        224,
        314,
        41,
        49,
        17,
        193,
        50,
        321,
        68,
        338,
        343,
        313,
        196,
        329,
        43,
        384,
        333,
        29,
        143,
        296,
        258,
        200,
        117,
        245,
        279,
        276,
        177,
        203,
        129,
        345,
        64,
        32,
        7,
        392,
        320,
        84,
        119,
        77,
        36,
        30,
        154,
        271,
        366,
        270,
        243,
        248,
        96,
        60,
        83,
        272,
        141,
        274,
        398,
        163,
        90,
        216,
        381,
        232,
        288,
        128,
        291,
        278,
        357,
        207,
        230,
        161,
        309,
        63,
        167,
        187,
        65,
        328,
        360,
        267,
        326,
        57,
        34,
        180,
        378,
        323,
        138,
        275,
        31,
        33,
        181,
        239,
        52,
        130,
        273,
        66,
        150,
        204,
        269,
        308,
        355,
        386,
        11,
        78,
        336,
        307,
        238,
        174,
        42,
        124,
        157,
        120,
        158,
        123,
        306,
        369,
        342,
        211,
        16,
        330,
        292,
        110,
        76,
        339,
        298,
        377,
        116,
        382,
        376,
        289,
        375,
        173,
        105,
        28,
        293,
        188,
        8,
        115,
        39,
        148,
        391,
        125,
        356,
        310,
        58,
        387,
        349,
        280,
        165,
        168,
        324,
        363,
        359,
        95,
        164,
        132,
        27,
        14,
        26,
        264,
        368,
        38,
        294,
        182,
        86,
        121,
        45,
        237,
        283,
        266,
        179,
        370,
        305,
        159,
        131,
        98,
        189,
        109,
        178,
        35,
        304,
        210,
        6,
        202,
        261,
        94,
        183,
        208,
        175,
        233,
        185,
        54,
        87,
        265,
        127,
        354,
        253,
        92,
        136,
        104,
        71,
        311,
        166,
        220,
        361,
        37,
        112,
        101,
        222,
        390,
        388,
        254,
        85,
        334,
        195,
        335,
        212,
        118,
        169,
        152,
        379,
        367,
        74,
        385,
        209,
        108,
        97,
        240,
        99,
        225,
        236,
        301,
        55,
        297,
        40,
        244,
        205,
        393,
        337,
        149,
        139,
        153,
        134,
        317,
        257,
        346,
        144,
        155,
        88,
        251,
        332,
        107,
        191,
        162,
        113,
        147,
        281,
        70,
        140,
        287,
        344,
        47,
        246,
        56,
        53,
        255,
        81,
        46,
        145,
        61,
        21,
        235,
        93,
        227,
        23,
        114,
        59,
        226,
        133,
        284,
        103,
        146,
        192,
        351,
        201,
        102,
        171,
        300,
        319,
        303,
        19,
        229,
        67,
        176,
        172,
        372,
        160,
        228,
        69,
        389,
        20,
        79,
        322,
        213,
        299,
        106,
        327,
        73,
        51,
        184,
        268,
        312,
        10,
        259,
        126,
        302,
        9,
        250,
        75,
        194,
        214,
        364,
        62
    ],
    "Global Optimum": 0,
    "Algorithm": "Genetic algorithm",
    "Parameters": {
        "population": 30,
        "offspring": 30,
        "mutation probability": 0.0025,
        "crossover probability": 0.9
    },
    "Fitness": 500039,
    "Solution": [
        353,
        340,
        190,
        383,
        72,
        0,
        256,
        249,
        82,
        290,
        218,
        197,
        15,
        48,
        252,
        151,
        316,
        219,
        331,
        142,
        89,
        277,
        186,
        13,
        350,
        380,
        399,
        263,
        260,
        135,
        217,
        22,
        371,
        44,
        373,
        18,
        348,
        100,
        5,
        215,
        231,
        111,
        365,
        318,
        396,
        347,
        341,
        3,
        91,
        223,
        395,
        137,
        198,
        80,
        156,
        170,
        199,
        374,
        262,
        397,
        1,
        241,
        282,
        12,
        352,
        358,
        234,
        286,
        242,
        285,
        221,
        25,
        325,
        315,
        394,
        4,
        2,
        247,
        24,
        206,
        295,
        122,
        362,
        224,
        314,
        41,
        49,
        17,
        193,
        50,
        321,
        68,
        338,
        343,
        313,
        196,
        329,
        43,
        384,
        333,
        29,
        143,
        296,
        258,
        200,
        117,
        245,
        279,
        276,
        177,
        203,
        129,
        345,
        64,
        32,
        7,
        392,
        320,
        84,
        119,
        77,
        36,
        30,
        154,
        271,
        366,
        270,
        243,
        248,
        96,
        60,
        83,
        272,
        141,
        274,
        398,
        163,
        90,
        216,
        381,
        232,
        288,
        128,
        291,
        278,
        357,
        207,
        230,
        161,
        309,
        63,
        167,
        187,
        65,
        328,
        360,
        267,
        326,
        57,
        34,
        180,
        378,
        323,
        138,
        275,
        31,
        33,
        181,
        239,
        52,
        130,
        273,
        66,
        150,
        204,
        269,
        308,
        355,
        386,
        11,
        78,
        336,
        307,
        238,
        174,
        42,
        124,
        157,
        120,
        158,
        123,
        306,
        369,
        342,
        211,
        16,
        330,
        292,
        110,
        76,
        339,
        298,
        377,
        116,
        382,
        376,
        289,
        375,
        173,
        105,
        28,
        293,
        188,
        8,
        115,
        39,
        148,
        391,
        125,
        356,
        310,
        58,
        387,
        349,
        280,
        165,
        168,
        324,
        363,
        359,
        95,
        164,
        132,
        27,
        14,
        26,
        264,
        368,
        38,
        294,
        182,
        86,
        121,
        45,
        237,
        283,
        266,
        179,
        370,
        305,
        159,
        131,
        98,
        189,
        109,
        178,
        35,
        304,
        210,
        6,
        202,
        261,
        94,
        183,
        208,
        175,
        233,
        185,
        54,
        87,
        265,
        127,
        354,
        253,
        92,
        136,
        104,
        71,
        311,
        166,
        220,
        361,
        37,
        112,
        101,
        222,
        390,
        388,
        254,
        85,
        334,
        195,
        335,
        212,
        118,
        169,
        152,
        379,
        367,
        74,
        385,
        209,
        108,
        97,
        240,
        99,
        225,
        236,
        301,
        55,
        297,
        40,
        244,
        205,
        393,
        337,
        149,
        139,
        153,
        134,
        317,
        257,
        346,
        144,
        155,
        88,
        251,
        332,
        107,
        191,
        162,
        113,
        147,
        281,
        70,
        140,
        287,
        344,
        47,
        246,
        56,
        53,
        255,
        81,
        46,
        145,
        61,
        21,
        235,
        93,
        227,
        23,
        114,
        59,
        226,
        133,
        284,
        103,
        146,
        192,
        351,
        201,
        102,
        171,
        300,
        319,
        303,
        19,
        229,
        67,
        176,
        172,
        372,
        160,
        228,
        69,
        389,
        20,
        79,
        322,
        213,
        299,
        106,
        327,
        73,
        51,
        184,
        268,
        312,
        10,
        259,
        126,
        302,
        9,
        250,
        75,
        194,
        214,
        364,
        62
    ],
    "Nb of functions evaluations": 50010,
    "Computational time in seconds": 240.92299628257751,
    "Stopping criterion in evaluations": 50000
}